22	3	3
3	6	3	53	33	44	
0	0	0	0	1	8	7	9	8	4	20	2	3	4	5	6	7	8	9	10	11	12	13	14	15	16	17	18	19	20	21
4	1	2	0	9	8	5	4	1	10	4	22	7	15	6
1	1	2	0	3	2	6	2	5	10	2	22	5
5	0	2	1	3	6	2	1	1	9	2	22	20
4	0	1	0	2	2	3	2	7	1	2	22	6
2	0	3	0	9	8	9	6	7	7	2	22	10
4	1	0	1	10	5	4	5	8	5	2	22	14
5	0	2	1	4	1	7	10	2	1	2	22	14
4	0	1	1	10	5	6	1	5	7	1	22
3	0	0	0	9	7	9	2	8	6	2	22	11
1	0	0	1	2	7	3	1	3	9	1	22
4	1	2	0	7	2	3	1	6	1	1	22
3	1	3	0	5	10	1	2	10	3	2	22	19
4	0	1	1	2	9	7	8	10	2	1	22
4	1	3	1	5	9	8	3	10	6	1	22
2	0	0	0	8	2	3	10	3	5	2	22	20
4	1	3	0	9	9	7	2	10	3	1	22
2	1	0	1	2	5	3	3	6	2	1	22
1	0	3	0	6	7	1	2	5	1	1	22
5	1	3	1	4	9	9	1	1	9	2	22	21
2	1	2	1	6	8	1	8	8	4	1	22
0	0	0	0	3	6	2	9	7	2	0
